
  32    1
  10

   0   0   6 2 3 4 6 7 12 
   7   2   4 13 9 8 5 
   9   6   7 20 16 15 14 13 10 9 
   3   5   5 16 15 11 10 9 
   3   9   4 16 15 14 10 
   7   7   4 20 18 17 9 
   7   5   4 25 16 15 10 
   3   9   4 21 19 16 15 
  10   8   5 25 23 22 21 19 
  10   7   5 31 23 21 19 17 
   9   3   5 25 23 20 19 17 
   2   6   4 25 23 21 17 
   4   6   4 27 23 22 19 
   9   4   4 27 25 24 19 
   9   4   2 23 17 
   4   5   5 31 30 28 27 24 
   1   9   4 29 28 27 24 
   2   8   4 29 28 27 24 
   8   5   3 29 28 26 
   5   5   3 30 27 26 
  10   4   2 30 27 
   7   8   2 31 28 
   2   6   1 24 
  10   5   1 26 
   5   6   1 26 
   9   1   1 32
   3   6   1 32
   4   9   1 32
   3  10   1 32
   9   4   1 32
   1   8   1 32
   0   0   0 
